c File: flat200_3_0.col
c
c SOURCE: Joseph Culberson (joe@cs.ualberta.ca)
c DESCRIPTION: Quasi-random coloring problem
c              generated with flatness = 0
c                             probability = 0.036
c                             known coloring = 3
c                             random seed = 1078
c              Creation Date:  Wed Feb 24 10:40:13 1999
c Maximum degree = 8 Minimum degree = 1
c COLOR VERIFICATION: Using the permuted order
c under simple greedy yields the specified
c coloring number
c Color = 3 specified partitions = 3
c p edge 200 479
c cnf created by edge2cnf
p cnf 600 2237
-1 -2 0
-1 -3 0
-2 -3 0
1 2 3 0
-4 -5 0
-4 -6 0
-5 -6 0
4 5 6 0
-7 -8 0
-7 -9 0
-8 -9 0
7 8 9 0
-10 -11 0
-10 -12 0
-11 -12 0
10 11 12 0
-13 -14 0
-13 -15 0
-14 -15 0
13 14 15 0
-16 -17 0
-16 -18 0
-17 -18 0
16 17 18 0
-19 -20 0
-19 -21 0
-20 -21 0
19 20 21 0
-22 -23 0
-22 -24 0
-23 -24 0
22 23 24 0
-25 -26 0
-25 -27 0
-26 -27 0
25 26 27 0
-28 -29 0
-28 -30 0
-29 -30 0
28 29 30 0
-31 -32 0
-31 -33 0
-32 -33 0
31 32 33 0
-34 -35 0
-34 -36 0
-35 -36 0
34 35 36 0
-37 -38 0
-37 -39 0
-38 -39 0
37 38 39 0
-40 -41 0
-40 -42 0
-41 -42 0
40 41 42 0
-43 -44 0
-43 -45 0
-44 -45 0
43 44 45 0
-46 -47 0
-46 -48 0
-47 -48 0
46 47 48 0
-49 -50 0
-49 -51 0
-50 -51 0
49 50 51 0
-52 -53 0
-52 -54 0
-53 -54 0
52 53 54 0
-55 -56 0
-55 -57 0
-56 -57 0
55 56 57 0
-58 -59 0
-58 -60 0
-59 -60 0
58 59 60 0
-61 -62 0
-61 -63 0
-62 -63 0
61 62 63 0
-64 -65 0
-64 -66 0
-65 -66 0
64 65 66 0
-67 -68 0
-67 -69 0
-68 -69 0
67 68 69 0
-70 -71 0
-70 -72 0
-71 -72 0
70 71 72 0
-73 -74 0
-73 -75 0
-74 -75 0
73 74 75 0
-76 -77 0
-76 -78 0
-77 -78 0
76 77 78 0
-79 -80 0
-79 -81 0
-80 -81 0
79 80 81 0
-82 -83 0
-82 -84 0
-83 -84 0
82 83 84 0
-85 -86 0
-85 -87 0
-86 -87 0
85 86 87 0
-88 -89 0
-88 -90 0
-89 -90 0
88 89 90 0
-91 -92 0
-91 -93 0
-92 -93 0
91 92 93 0
-94 -95 0
-94 -96 0
-95 -96 0
94 95 96 0
-97 -98 0
-97 -99 0
-98 -99 0
97 98 99 0
-100 -101 0
-100 -102 0
-101 -102 0
100 101 102 0
-103 -104 0
-103 -105 0
-104 -105 0
103 104 105 0
-106 -107 0
-106 -108 0
-107 -108 0
106 107 108 0
-109 -110 0
-109 -111 0
-110 -111 0
109 110 111 0
-112 -113 0
-112 -114 0
-113 -114 0
112 113 114 0
-115 -116 0
-115 -117 0
-116 -117 0
115 116 117 0
-118 -119 0
-118 -120 0
-119 -120 0
118 119 120 0
-121 -122 0
-121 -123 0
-122 -123 0
121 122 123 0
-124 -125 0
-124 -126 0
-125 -126 0
124 125 126 0
-127 -128 0
-127 -129 0
-128 -129 0
127 128 129 0
-130 -131 0
-130 -132 0
-131 -132 0
130 131 132 0
-133 -134 0
-133 -135 0
-134 -135 0
133 134 135 0
-136 -137 0
-136 -138 0
-137 -138 0
136 137 138 0
-139 -140 0
-139 -141 0
-140 -141 0
139 140 141 0
-142 -143 0
-142 -144 0
-143 -144 0
142 143 144 0
-145 -146 0
-145 -147 0
-146 -147 0
145 146 147 0
-148 -149 0
-148 -150 0
-149 -150 0
148 149 150 0
-151 -152 0
-151 -153 0
-152 -153 0
151 152 153 0
-154 -155 0
-154 -156 0
-155 -156 0
154 155 156 0
-157 -158 0
-157 -159 0
-158 -159 0
157 158 159 0
-160 -161 0
-160 -162 0
-161 -162 0
160 161 162 0
-163 -164 0
-163 -165 0
-164 -165 0
163 164 165 0
-166 -167 0
-166 -168 0
-167 -168 0
166 167 168 0
-169 -170 0
-169 -171 0
-170 -171 0
169 170 171 0
-172 -173 0
-172 -174 0
-173 -174 0
172 173 174 0
-175 -176 0
-175 -177 0
-176 -177 0
175 176 177 0
-178 -179 0
-178 -180 0
-179 -180 0
178 179 180 0
-181 -182 0
-181 -183 0
-182 -183 0
181 182 183 0
-184 -185 0
-184 -186 0
-185 -186 0
184 185 186 0
-187 -188 0
-187 -189 0
-188 -189 0
187 188 189 0
-190 -191 0
-190 -192 0
-191 -192 0
190 191 192 0
-193 -194 0
-193 -195 0
-194 -195 0
193 194 195 0
-196 -197 0
-196 -198 0
-197 -198 0
196 197 198 0
-199 -200 0
-199 -201 0
-200 -201 0
199 200 201 0
-202 -203 0
-202 -204 0
-203 -204 0
202 203 204 0
-205 -206 0
-205 -207 0
-206 -207 0
205 206 207 0
-208 -209 0
-208 -210 0
-209 -210 0
208 209 210 0
-211 -212 0
-211 -213 0
-212 -213 0
211 212 213 0
-214 -215 0
-214 -216 0
-215 -216 0
214 215 216 0
-217 -218 0
-217 -219 0
-218 -219 0
217 218 219 0
-220 -221 0
-220 -222 0
-221 -222 0
220 221 222 0
-223 -224 0
-223 -225 0
-224 -225 0
223 224 225 0
-226 -227 0
-226 -228 0
-227 -228 0
226 227 228 0
-229 -230 0
-229 -231 0
-230 -231 0
229 230 231 0
-232 -233 0
-232 -234 0
-233 -234 0
232 233 234 0
-235 -236 0
-235 -237 0
-236 -237 0
235 236 237 0
-238 -239 0
-238 -240 0
-239 -240 0
238 239 240 0
-241 -242 0
-241 -243 0
-242 -243 0
241 242 243 0
-244 -245 0
-244 -246 0
-245 -246 0
244 245 246 0
-247 -248 0
-247 -249 0
-248 -249 0
247 248 249 0
-250 -251 0
-250 -252 0
-251 -252 0
250 251 252 0
-253 -254 0
-253 -255 0
-254 -255 0
253 254 255 0
-256 -257 0
-256 -258 0
-257 -258 0
256 257 258 0
-259 -260 0
-259 -261 0
-260 -261 0
259 260 261 0
-262 -263 0
-262 -264 0
-263 -264 0
262 263 264 0
-265 -266 0
-265 -267 0
-266 -267 0
265 266 267 0
-268 -269 0
-268 -270 0
-269 -270 0
268 269 270 0
-271 -272 0
-271 -273 0
-272 -273 0
271 272 273 0
-274 -275 0
-274 -276 0
-275 -276 0
274 275 276 0
-277 -278 0
-277 -279 0
-278 -279 0
277 278 279 0
-280 -281 0
-280 -282 0
-281 -282 0
280 281 282 0
-283 -284 0
-283 -285 0
-284 -285 0
283 284 285 0
-286 -287 0
-286 -288 0
-287 -288 0
286 287 288 0
-289 -290 0
-289 -291 0
-290 -291 0
289 290 291 0
-292 -293 0
-292 -294 0
-293 -294 0
292 293 294 0
-295 -296 0
-295 -297 0
-296 -297 0
295 296 297 0
-298 -299 0
-298 -300 0
-299 -300 0
298 299 300 0
-301 -302 0
-301 -303 0
-302 -303 0
301 302 303 0
-304 -305 0
-304 -306 0
-305 -306 0
304 305 306 0
-307 -308 0
-307 -309 0
-308 -309 0
307 308 309 0
-310 -311 0
-310 -312 0
-311 -312 0
310 311 312 0
-313 -314 0
-313 -315 0
-314 -315 0
313 314 315 0
-316 -317 0
-316 -318 0
-317 -318 0
316 317 318 0
-319 -320 0
-319 -321 0
-320 -321 0
319 320 321 0
-322 -323 0
-322 -324 0
-323 -324 0
322 323 324 0
-325 -326 0
-325 -327 0
-326 -327 0
325 326 327 0
-328 -329 0
-328 -330 0
-329 -330 0
328 329 330 0
-331 -332 0
-331 -333 0
-332 -333 0
331 332 333 0
-334 -335 0
-334 -336 0
-335 -336 0
334 335 336 0
-337 -338 0
-337 -339 0
-338 -339 0
337 338 339 0
-340 -341 0
-340 -342 0
-341 -342 0
340 341 342 0
-343 -344 0
-343 -345 0
-344 -345 0
343 344 345 0
-346 -347 0
-346 -348 0
-347 -348 0
346 347 348 0
-349 -350 0
-349 -351 0
-350 -351 0
349 350 351 0
-352 -353 0
-352 -354 0
-353 -354 0
352 353 354 0
-355 -356 0
-355 -357 0
-356 -357 0
355 356 357 0
-358 -359 0
-358 -360 0
-359 -360 0
358 359 360 0
-361 -362 0
-361 -363 0
-362 -363 0
361 362 363 0
-364 -365 0
-364 -366 0
-365 -366 0
364 365 366 0
-367 -368 0
-367 -369 0
-368 -369 0
367 368 369 0
-370 -371 0
-370 -372 0
-371 -372 0
370 371 372 0
-373 -374 0
-373 -375 0
-374 -375 0
373 374 375 0
-376 -377 0
-376 -378 0
-377 -378 0
376 377 378 0
-379 -380 0
-379 -381 0
-380 -381 0
379 380 381 0
-382 -383 0
-382 -384 0
-383 -384 0
382 383 384 0
-385 -386 0
-385 -387 0
-386 -387 0
385 386 387 0
-388 -389 0
-388 -390 0
-389 -390 0
388 389 390 0
-391 -392 0
-391 -393 0
-392 -393 0
391 392 393 0
-394 -395 0
-394 -396 0
-395 -396 0
394 395 396 0
-397 -398 0
-397 -399 0
-398 -399 0
397 398 399 0
-400 -401 0
-400 -402 0
-401 -402 0
400 401 402 0
-403 -404 0
-403 -405 0
-404 -405 0
403 404 405 0
-406 -407 0
-406 -408 0
-407 -408 0
406 407 408 0
-409 -410 0
-409 -411 0
-410 -411 0
409 410 411 0
-412 -413 0
-412 -414 0
-413 -414 0
412 413 414 0
-415 -416 0
-415 -417 0
-416 -417 0
415 416 417 0
-418 -419 0
-418 -420 0
-419 -420 0
418 419 420 0
-421 -422 0
-421 -423 0
-422 -423 0
421 422 423 0
-424 -425 0
-424 -426 0
-425 -426 0
424 425 426 0
-427 -428 0
-427 -429 0
-428 -429 0
427 428 429 0
-430 -431 0
-430 -432 0
-431 -432 0
430 431 432 0
-433 -434 0
-433 -435 0
-434 -435 0
433 434 435 0
-436 -437 0
-436 -438 0
-437 -438 0
436 437 438 0
-439 -440 0
-439 -441 0
-440 -441 0
439 440 441 0
-442 -443 0
-442 -444 0
-443 -444 0
442 443 444 0
-445 -446 0
-445 -447 0
-446 -447 0
445 446 447 0
-448 -449 0
-448 -450 0
-449 -450 0
448 449 450 0
-451 -452 0
-451 -453 0
-452 -453 0
451 452 453 0
-454 -455 0
-454 -456 0
-455 -456 0
454 455 456 0
-457 -458 0
-457 -459 0
-458 -459 0
457 458 459 0
-460 -461 0
-460 -462 0
-461 -462 0
460 461 462 0
-463 -464 0
-463 -465 0
-464 -465 0
463 464 465 0
-466 -467 0
-466 -468 0
-467 -468 0
466 467 468 0
-469 -470 0
-469 -471 0
-470 -471 0
469 470 471 0
-472 -473 0
-472 -474 0
-473 -474 0
472 473 474 0
-475 -476 0
-475 -477 0
-476 -477 0
475 476 477 0
-478 -479 0
-478 -480 0
-479 -480 0
478 479 480 0
-481 -482 0
-481 -483 0
-482 -483 0
481 482 483 0
-484 -485 0
-484 -486 0
-485 -486 0
484 485 486 0
-487 -488 0
-487 -489 0
-488 -489 0
487 488 489 0
-490 -491 0
-490 -492 0
-491 -492 0
490 491 492 0
-493 -494 0
-493 -495 0
-494 -495 0
493 494 495 0
-496 -497 0
-496 -498 0
-497 -498 0
496 497 498 0
-499 -500 0
-499 -501 0
-500 -501 0
499 500 501 0
-502 -503 0
-502 -504 0
-503 -504 0
502 503 504 0
-505 -506 0
-505 -507 0
-506 -507 0
505 506 507 0
-508 -509 0
-508 -510 0
-509 -510 0
508 509 510 0
-511 -512 0
-511 -513 0
-512 -513 0
511 512 513 0
-514 -515 0
-514 -516 0
-515 -516 0
514 515 516 0
-517 -518 0
-517 -519 0
-518 -519 0
517 518 519 0
-520 -521 0
-520 -522 0
-521 -522 0
520 521 522 0
-523 -524 0
-523 -525 0
-524 -525 0
523 524 525 0
-526 -527 0
-526 -528 0
-527 -528 0
526 527 528 0
-529 -530 0
-529 -531 0
-530 -531 0
529 530 531 0
-532 -533 0
-532 -534 0
-533 -534 0
532 533 534 0
-535 -536 0
-535 -537 0
-536 -537 0
535 536 537 0
-538 -539 0
-538 -540 0
-539 -540 0
538 539 540 0
-541 -542 0
-541 -543 0
-542 -543 0
541 542 543 0
-544 -545 0
-544 -546 0
-545 -546 0
544 545 546 0
-547 -548 0
-547 -549 0
-548 -549 0
547 548 549 0
-550 -551 0
-550 -552 0
-551 -552 0
550 551 552 0
-553 -554 0
-553 -555 0
-554 -555 0
553 554 555 0
-556 -557 0
-556 -558 0
-557 -558 0
556 557 558 0
-559 -560 0
-559 -561 0
-560 -561 0
559 560 561 0
-562 -563 0
-562 -564 0
-563 -564 0
562 563 564 0
-565 -566 0
-565 -567 0
-566 -567 0
565 566 567 0
-568 -569 0
-568 -570 0
-569 -570 0
568 569 570 0
-571 -572 0
-571 -573 0
-572 -573 0
571 572 573 0
-574 -575 0
-574 -576 0
-575 -576 0
574 575 576 0
-577 -578 0
-577 -579 0
-578 -579 0
577 578 579 0
-580 -581 0
-580 -582 0
-581 -582 0
580 581 582 0
-583 -584 0
-583 -585 0
-584 -585 0
583 584 585 0
-586 -587 0
-586 -588 0
-587 -588 0
586 587 588 0
-589 -590 0
-589 -591 0
-590 -591 0
589 590 591 0
-592 -593 0
-592 -594 0
-593 -594 0
592 593 594 0
-595 -596 0
-595 -597 0
-596 -597 0
595 596 597 0
-598 -599 0
-598 -600 0
-599 -600 0
598 599 600 0
-529 -1 0
-530 -2 0
-531 -3 0
-70 -4 0
-71 -5 0
-72 -6 0
-151 -4 0
-152 -5 0
-153 -6 0
-190 -4 0
-191 -5 0
-192 -6 0
-376 -4 0
-377 -5 0
-378 -6 0
-472 -7 0
-473 -8 0
-474 -9 0
-46 -10 0
-47 -11 0
-48 -12 0
-58 -10 0
-59 -11 0
-60 -12 0
-139 -10 0
-140 -11 0
-141 -12 0
-274 -10 0
-275 -11 0
-276 -12 0
-436 -10 0
-437 -11 0
-438 -12 0
-559 -10 0
-560 -11 0
-561 -12 0
-127 -13 0
-128 -14 0
-129 -15 0
-133 -13 0
-134 -14 0
-135 -15 0
-418 -13 0
-419 -14 0
-420 -15 0
-130 -16 0
-131 -17 0
-132 -18 0
-160 -16 0
-161 -17 0
-162 -18 0
-217 -16 0
-218 -17 0
-219 -18 0
-316 -16 0
-317 -17 0
-318 -18 0
-352 -16 0
-353 -17 0
-354 -18 0
-376 -16 0
-377 -17 0
-378 -18 0
-577 -16 0
-578 -17 0
-579 -18 0
-184 -19 0
-185 -20 0
-186 -21 0
-187 -19 0
-188 -20 0
-189 -21 0
-541 -19 0
-542 -20 0
-543 -21 0
-580 -19 0
-581 -20 0
-582 -21 0
-319 -22 0
-320 -23 0
-321 -24 0
-385 -22 0
-386 -23 0
-387 -24 0
-508 -22 0
-509 -23 0
-510 -24 0
-94 -25 0
-95 -26 0
-96 -27 0
-250 -25 0
-251 -26 0
-252 -27 0
-364 -25 0
-365 -26 0
-366 -27 0
-511 -25 0
-512 -26 0
-513 -27 0
-589 -25 0
-590 -26 0
-591 -27 0
-46 -28 0
-47 -29 0
-48 -30 0
-58 -28 0
-59 -29 0
-60 -30 0
-538 -28 0
-539 -29 0
-540 -30 0
-124 -31 0
-125 -32 0
-126 -33 0
-277 -31 0
-278 -32 0
-279 -33 0
-298 -31 0
-299 -32 0
-300 -33 0
-463 -31 0
-464 -32 0
-465 -33 0
-76 -34 0
-77 -35 0
-78 -36 0
-190 -34 0
-191 -35 0
-192 -36 0
-238 -34 0
-239 -35 0
-240 -36 0
-379 -34 0
-380 -35 0
-381 -36 0
-448 -34 0
-449 -35 0
-450 -36 0
-235 -37 0
-236 -38 0
-237 -39 0
-73 -40 0
-74 -41 0
-75 -42 0
-139 -40 0
-140 -41 0
-141 -42 0
-247 -40 0
-248 -41 0
-249 -42 0
-445 -40 0
-446 -41 0
-447 -42 0
-115 -43 0
-116 -44 0
-117 -45 0
-145 -43 0
-146 -44 0
-147 -45 0
-253 -43 0
-254 -44 0
-255 -45 0
-346 -43 0
-347 -44 0
-348 -45 0
-424 -43 0
-425 -44 0
-426 -45 0
-445 -43 0
-446 -44 0
-447 -45 0
-511 -43 0
-512 -44 0
-513 -45 0
-139 -46 0
-140 -47 0
-141 -48 0
-382 -46 0
-383 -47 0
-384 -48 0
-172 -49 0
-173 -50 0
-174 -51 0
-214 -49 0
-215 -50 0
-216 -51 0
-223 -49 0
-224 -50 0
-225 -51 0
-235 -49 0
-236 -50 0
-237 -51 0
-271 -49 0
-272 -50 0
-273 -51 0
-358 -52 0
-359 -53 0
-360 -54 0
-598 -52 0
-599 -53 0
-600 -54 0
-178 -55 0
-179 -56 0
-180 -57 0
-367 -55 0
-368 -56 0
-369 -57 0
-400 -55 0
-401 -56 0
-402 -57 0
-406 -55 0
-407 -56 0
-408 -57 0
-124 -58 0
-125 -59 0
-126 -60 0
-154 -58 0
-155 -59 0
-156 -60 0
-193 -58 0
-194 -59 0
-195 -60 0
-316 -58 0
-317 -59 0
-318 -60 0
-589 -58 0
-590 -59 0
-591 -60 0
-154 -61 0
-155 -62 0
-156 -63 0
-313 -61 0
-314 -62 0
-315 -63 0
-391 -61 0
-392 -62 0
-393 -63 0
-433 -61 0
-434 -62 0
-435 -63 0
-208 -64 0
-209 -65 0
-210 -66 0
-466 -64 0
-467 -65 0
-468 -66 0
-511 -64 0
-512 -65 0
-513 -66 0
-244 -67 0
-245 -68 0
-246 -69 0
-358 -67 0
-359 -68 0
-360 -69 0
-436 -67 0
-437 -68 0
-438 -69 0
-574 -67 0
-575 -68 0
-576 -69 0
-589 -67 0
-590 -68 0
-591 -69 0
-319 -70 0
-320 -71 0
-321 -72 0
-367 -70 0
-368 -71 0
-369 -72 0
-388 -70 0
-389 -71 0
-390 -72 0
-178 -73 0
-179 -74 0
-180 -75 0
-193 -73 0
-194 -74 0
-195 -75 0
-463 -73 0
-464 -74 0
-465 -75 0
-499 -73 0
-500 -74 0
-501 -75 0
-103 -76 0
-104 -77 0
-105 -78 0
-241 -76 0
-242 -77 0
-243 -78 0
-253 -76 0
-254 -77 0
-255 -78 0
-322 -76 0
-323 -77 0
-324 -78 0
-334 -76 0
-335 -77 0
-336 -78 0
-544 -76 0
-545 -77 0
-546 -78 0
-568 -76 0
-569 -77 0
-570 -78 0
-151 -79 0
-152 -80 0
-153 -81 0
-181 -79 0
-182 -80 0
-183 -81 0
-268 -79 0
-269 -80 0
-270 -81 0
-313 -79 0
-314 -80 0
-315 -81 0
-454 -79 0
-455 -80 0
-456 -81 0
-466 -79 0
-467 -80 0
-468 -81 0
-520 -79 0
-521 -80 0
-522 -81 0
-583 -79 0
-584 -80 0
-585 -81 0
-160 -82 0
-161 -83 0
-162 -84 0
-229 -82 0
-230 -83 0
-231 -84 0
-268 -82 0
-269 -83 0
-270 -84 0
-451 -82 0
-452 -83 0
-453 -84 0
-505 -82 0
-506 -83 0
-507 -84 0
-508 -82 0
-509 -83 0
-510 -84 0
-154 -85 0
-155 -86 0
-156 -87 0
-316 -85 0
-317 -86 0
-318 -87 0
-319 -85 0
-320 -86 0
-321 -87 0
-484 -85 0
-485 -86 0
-486 -87 0
-151 -88 0
-152 -89 0
-153 -90 0
-271 -88 0
-272 -89 0
-273 -90 0
-283 -88 0
-284 -89 0
-285 -90 0
-364 -88 0
-365 -89 0
-366 -90 0
-148 -91 0
-149 -92 0
-150 -93 0
-160 -94 0
-161 -95 0
-162 -96 0
-364 -94 0
-365 -95 0
-366 -96 0
-418 -94 0
-419 -95 0
-420 -96 0
-448 -94 0
-449 -95 0
-450 -96 0
-547 -94 0
-548 -95 0
-549 -96 0
-106 -97 0
-107 -98 0
-108 -99 0
-112 -97 0
-113 -98 0
-114 -99 0
-343 -97 0
-344 -98 0
-345 -99 0
-361 -97 0
-362 -98 0
-363 -99 0
-277 -100 0
-278 -101 0
-279 -102 0
-148 -103 0
-149 -104 0
-150 -105 0
-352 -103 0
-353 -104 0
-354 -105 0
-469 -103 0
-470 -104 0
-471 -105 0
-484 -103 0
-485 -104 0
-486 -105 0
-574 -103 0
-575 -104 0
-576 -105 0
-199 -106 0
-200 -107 0
-201 -108 0
-235 -106 0
-236 -107 0
-237 -108 0
-274 -106 0
-275 -107 0
-276 -108 0
-460 -106 0
-461 -107 0
-462 -108 0
-166 -109 0
-167 -110 0
-168 -111 0
-175 -109 0
-176 -110 0
-177 -111 0
-286 -112 0
-287 -113 0
-288 -114 0
-298 -112 0
-299 -113 0
-300 -114 0
-328 -112 0
-329 -113 0
-330 -114 0
-412 -112 0
-413 -113 0
-414 -114 0
-136 -115 0
-137 -116 0
-138 -117 0
-199 -115 0
-200 -116 0
-201 -117 0
-202 -115 0
-203 -116 0
-204 -117 0
-409 -115 0
-410 -116 0
-411 -117 0
-166 -118 0
-167 -119 0
-168 -120 0
-370 -118 0
-371 -119 0
-372 -120 0
-214 -121 0
-215 -122 0
-216 -123 0
-547 -121 0
-548 -122 0
-549 -123 0
-217 -124 0
-218 -125 0
-219 -126 0
-283 -124 0
-284 -125 0
-285 -126 0
-289 -124 0
-290 -125 0
-291 -126 0
-286 -127 0
-287 -128 0
-288 -129 0
-316 -127 0
-317 -128 0
-318 -129 0
-322 -127 0
-323 -128 0
-324 -129 0
-151 -130 0
-152 -131 0
-153 -132 0
-364 -130 0
-365 -131 0
-366 -132 0
-463 -130 0
-464 -131 0
-465 -132 0
-505 -130 0
-506 -131 0
-507 -132 0
-544 -130 0
-545 -131 0
-546 -132 0
-166 -133 0
-167 -134 0
-168 -135 0
-346 -136 0
-347 -137 0
-348 -138 0
-367 -136 0
-368 -137 0
-369 -138 0
-406 -136 0
-407 -137 0
-408 -138 0
-556 -136 0
-557 -137 0
-558 -138 0
-418 -139 0
-419 -140 0
-420 -141 0
-454 -139 0
-455 -140 0
-456 -141 0
-487 -139 0
-488 -140 0
-489 -141 0
-574 -139 0
-575 -140 0
-576 -141 0
-343 -142 0
-344 -143 0
-345 -144 0
-385 -142 0
-386 -143 0
-387 -144 0
-460 -142 0
-461 -143 0
-462 -144 0
-328 -145 0
-329 -146 0
-330 -147 0
-391 -145 0
-392 -146 0
-393 -147 0
-202 -148 0
-203 -149 0
-204 -150 0
-532 -148 0
-533 -149 0
-534 -150 0
-295 -151 0
-296 -152 0
-297 -153 0
-583 -151 0
-584 -152 0
-585 -153 0
-424 -154 0
-425 -155 0
-426 -156 0
-457 -154 0
-458 -155 0
-459 -156 0
-517 -154 0
-518 -155 0
-519 -156 0
-217 -157 0
-218 -158 0
-219 -159 0
-277 -157 0
-278 -158 0
-279 -159 0
-316 -157 0
-317 -158 0
-318 -159 0
-382 -157 0
-383 -158 0
-384 -159 0
-574 -157 0
-575 -158 0
-576 -159 0
-226 -160 0
-227 -161 0
-228 -162 0
-595 -160 0
-596 -161 0
-597 -162 0
-169 -163 0
-170 -164 0
-171 -165 0
-181 -163 0
-182 -164 0
-183 -165 0
-184 -163 0
-185 -164 0
-186 -165 0
-355 -163 0
-356 -164 0
-357 -165 0
-415 -163 0
-416 -164 0
-417 -165 0
-424 -163 0
-425 -164 0
-426 -165 0
-451 -163 0
-452 -164 0
-453 -165 0
-493 -163 0
-494 -164 0
-495 -165 0
-175 -166 0
-176 -167 0
-177 -168 0
-433 -166 0
-434 -167 0
-435 -168 0
-589 -166 0
-590 -167 0
-591 -168 0
-205 -169 0
-206 -170 0
-207 -171 0
-223 -169 0
-224 -170 0
-225 -171 0
-304 -169 0
-305 -170 0
-306 -171 0
-355 -169 0
-356 -170 0
-357 -171 0
-406 -169 0
-407 -170 0
-408 -171 0
-571 -169 0
-572 -170 0
-573 -171 0
-328 -172 0
-329 -173 0
-330 -174 0
-367 -172 0
-368 -173 0
-369 -174 0
-421 -172 0
-422 -173 0
-423 -174 0
-427 -172 0
-428 -173 0
-429 -174 0
-226 -175 0
-227 -176 0
-228 -177 0
-271 -175 0
-272 -176 0
-273 -177 0
-409 -175 0
-410 -176 0
-411 -177 0
-424 -175 0
-425 -176 0
-426 -177 0
-505 -175 0
-506 -176 0
-507 -177 0
-547 -175 0
-548 -176 0
-549 -177 0
-292 -178 0
-293 -179 0
-294 -180 0
-427 -178 0
-428 -179 0
-429 -180 0
-523 -178 0
-524 -179 0
-525 -180 0
-226 -181 0
-227 -182 0
-228 -183 0
-265 -181 0
-266 -182 0
-267 -183 0
-274 -181 0
-275 -182 0
-276 -183 0
-544 -181 0
-545 -182 0
-546 -183 0
-280 -184 0
-281 -185 0
-282 -186 0
-367 -184 0
-368 -185 0
-369 -186 0
-373 -184 0
-374 -185 0
-375 -186 0
-499 -184 0
-500 -185 0
-501 -186 0
-520 -184 0
-521 -185 0
-522 -186 0
-277 -187 0
-278 -188 0
-279 -189 0
-484 -187 0
-485 -188 0
-486 -189 0
-487 -187 0
-488 -188 0
-489 -189 0
-247 -190 0
-248 -191 0
-249 -192 0
-409 -190 0
-410 -191 0
-411 -192 0
-517 -190 0
-518 -191 0
-519 -192 0
-214 -193 0
-215 -194 0
-216 -195 0
-487 -193 0
-488 -194 0
-489 -195 0
-535 -193 0
-536 -194 0
-537 -195 0
-541 -193 0
-542 -194 0
-543 -195 0
-244 -196 0
-245 -197 0
-246 -198 0
-442 -196 0
-443 -197 0
-444 -198 0
-490 -199 0
-491 -200 0
-492 -201 0
-523 -199 0
-524 -200 0
-525 -201 0
-544 -199 0
-545 -200 0
-546 -201 0
-400 -205 0
-401 -206 0
-402 -207 0
-487 -205 0
-488 -206 0
-489 -207 0
-589 -205 0
-590 -206 0
-591 -207 0
-238 -208 0
-239 -209 0
-240 -210 0
-241 -208 0
-242 -209 0
-243 -210 0
-343 -208 0
-344 -209 0
-345 -210 0
-520 -208 0
-521 -209 0
-522 -210 0
-568 -208 0
-569 -209 0
-570 -210 0
-259 -211 0
-260 -212 0
-261 -213 0
-403 -211 0
-404 -212 0
-405 -213 0
-457 -211 0
-458 -212 0
-459 -213 0
-520 -211 0
-521 -212 0
-522 -213 0
-580 -211 0
-581 -212 0
-582 -213 0
-316 -214 0
-317 -215 0
-318 -216 0
-394 -214 0
-395 -215 0
-396 -216 0
-424 -220 0
-425 -221 0
-426 -222 0
-484 -220 0
-485 -221 0
-486 -222 0
-532 -220 0
-533 -221 0
-534 -222 0
-238 -223 0
-239 -224 0
-240 -225 0
-358 -223 0
-359 -224 0
-360 -225 0
-382 -223 0
-383 -224 0
-384 -225 0
-532 -223 0
-533 -224 0
-534 -225 0
-265 -226 0
-266 -227 0
-267 -228 0
-286 -226 0
-287 -227 0
-288 -228 0
-454 -226 0
-455 -227 0
-456 -228 0
-505 -226 0
-506 -227 0
-507 -228 0
-376 -229 0
-377 -230 0
-378 -231 0
-427 -229 0
-428 -230 0
-429 -231 0
-565 -229 0
-566 -230 0
-567 -231 0
-241 -232 0
-242 -233 0
-243 -234 0
-319 -232 0
-320 -233 0
-321 -234 0
-493 -232 0
-494 -233 0
-495 -234 0
-325 -238 0
-326 -239 0
-327 -240 0
-382 -238 0
-383 -239 0
-384 -240 0
-436 -238 0
-437 -239 0
-438 -240 0
-580 -238 0
-581 -239 0
-582 -240 0
-313 -241 0
-314 -242 0
-315 -243 0
-394 -241 0
-395 -242 0
-396 -243 0
-421 -241 0
-422 -242 0
-423 -243 0
-340 -244 0
-341 -245 0
-342 -246 0
-403 -244 0
-404 -245 0
-405 -246 0
-433 -244 0
-434 -245 0
-435 -246 0
-535 -244 0
-536 -245 0
-537 -246 0
-313 -247 0
-314 -248 0
-315 -249 0
-436 -247 0
-437 -248 0
-438 -249 0
-289 -250 0
-290 -251 0
-291 -252 0
-472 -250 0
-473 -251 0
-474 -252 0
-277 -253 0
-278 -254 0
-279 -255 0
-472 -253 0
-473 -254 0
-474 -255 0
-517 -253 0
-518 -254 0
-519 -255 0
-472 -256 0
-473 -257 0
-474 -258 0
-544 -256 0
-545 -257 0
-546 -258 0
-289 -259 0
-290 -260 0
-291 -261 0
-295 -259 0
-296 -260 0
-297 -261 0
-313 -259 0
-314 -260 0
-315 -261 0
-370 -259 0
-371 -260 0
-372 -261 0
-403 -259 0
-404 -260 0
-405 -261 0
-544 -259 0
-545 -260 0
-546 -261 0
-448 -262 0
-449 -263 0
-450 -264 0
-514 -262 0
-515 -263 0
-516 -264 0
-364 -265 0
-365 -266 0
-366 -267 0
-376 -265 0
-377 -266 0
-378 -267 0
-562 -265 0
-563 -266 0
-564 -267 0
-490 -268 0
-491 -269 0
-492 -270 0
-529 -268 0
-530 -269 0
-531 -270 0
-283 -271 0
-284 -272 0
-285 -273 0
-292 -271 0
-293 -272 0
-294 -273 0
-475 -271 0
-476 -272 0
-477 -273 0
-496 -271 0
-497 -272 0
-498 -273 0
-577 -271 0
-578 -272 0
-579 -273 0
-490 -274 0
-491 -275 0
-492 -276 0
-292 -277 0
-293 -278 0
-294 -279 0
-319 -277 0
-320 -278 0
-321 -279 0
-373 -277 0
-374 -278 0
-375 -279 0
-316 -280 0
-317 -281 0
-318 -282 0
-328 -280 0
-329 -281 0
-330 -282 0
-385 -280 0
-386 -281 0
-387 -282 0
-424 -280 0
-425 -281 0
-426 -282 0
-448 -280 0
-449 -281 0
-450 -282 0
-481 -280 0
-482 -281 0
-483 -282 0
-439 -283 0
-440 -284 0
-441 -285 0
-520 -283 0
-521 -284 0
-522 -285 0
-391 -286 0
-392 -287 0
-393 -288 0
-409 -286 0
-410 -287 0
-411 -288 0
-472 -286 0
-473 -287 0
-474 -288 0
-502 -286 0
-503 -287 0
-504 -288 0
-412 -289 0
-413 -290 0
-414 -291 0
-547 -289 0
-548 -290 0
-549 -291 0
-346 -292 0
-347 -293 0
-348 -294 0
-361 -292 0
-362 -293 0
-363 -294 0
-490 -292 0
-491 -293 0
-492 -294 0
-325 -295 0
-326 -296 0
-327 -297 0
-355 -295 0
-356 -296 0
-357 -297 0
-589 -295 0
-590 -296 0
-591 -297 0
-388 -298 0
-389 -299 0
-390 -300 0
-415 -298 0
-416 -299 0
-417 -300 0
-541 -298 0
-542 -299 0
-543 -300 0
-325 -301 0
-326 -302 0
-327 -303 0
-391 -301 0
-392 -302 0
-393 -303 0
-403 -301 0
-404 -302 0
-405 -303 0
-490 -301 0
-491 -302 0
-492 -303 0
-502 -301 0
-503 -302 0
-504 -303 0
-565 -301 0
-566 -302 0
-567 -303 0
-574 -301 0
-575 -302 0
-576 -303 0
-586 -301 0
-587 -302 0
-588 -303 0
-376 -304 0
-377 -305 0
-378 -306 0
-526 -304 0
-527 -305 0
-528 -306 0
-385 -307 0
-386 -308 0
-387 -309 0
-508 -307 0
-509 -308 0
-510 -309 0
-376 -310 0
-377 -311 0
-378 -312 0
-469 -310 0
-470 -311 0
-471 -312 0
-487 -310 0
-488 -311 0
-489 -312 0
-517 -310 0
-518 -311 0
-519 -312 0
-334 -313 0
-335 -314 0
-336 -315 0
-496 -313 0
-497 -314 0
-498 -315 0
-598 -319 0
-599 -320 0
-600 -321 0
-358 -322 0
-359 -323 0
-360 -324 0
-397 -322 0
-398 -323 0
-399 -324 0
-400 -322 0
-401 -323 0
-402 -324 0
-421 -322 0
-422 -323 0
-423 -324 0
-493 -322 0
-494 -323 0
-495 -324 0
-412 -325 0
-413 -326 0
-414 -327 0
-526 -325 0
-527 -326 0
-528 -327 0
-457 -328 0
-458 -329 0
-459 -330 0
-586 -328 0
-587 -329 0
-588 -330 0
-478 -331 0
-479 -332 0
-480 -333 0
-343 -334 0
-344 -335 0
-345 -336 0
-559 -334 0
-560 -335 0
-561 -336 0
-358 -337 0
-359 -338 0
-360 -339 0
-361 -337 0
-362 -338 0
-363 -339 0
-436 -337 0
-437 -338 0
-438 -339 0
-445 -337 0
-446 -338 0
-447 -339 0
-472 -337 0
-473 -338 0
-474 -339 0
-532 -340 0
-533 -341 0
-534 -342 0
-490 -343 0
-491 -344 0
-492 -345 0
-529 -343 0
-530 -344 0
-531 -345 0
-523 -349 0
-524 -350 0
-525 -351 0
-409 -352 0
-410 -353 0
-411 -354 0
-424 -352 0
-425 -353 0
-426 -354 0
-499 -352 0
-500 -353 0
-501 -354 0
-427 -355 0
-428 -356 0
-429 -357 0
-514 -355 0
-515 -356 0
-516 -357 0
-544 -361 0
-545 -362 0
-546 -363 0
-511 -364 0
-512 -365 0
-513 -366 0
-535 -364 0
-536 -365 0
-537 -366 0
-466 -367 0
-467 -368 0
-468 -369 0
-583 -367 0
-584 -368 0
-585 -369 0
-412 -370 0
-413 -371 0
-414 -372 0
-595 -370 0
-596 -371 0
-597 -372 0
-598 -370 0
-599 -371 0
-600 -372 0
-529 -373 0
-530 -374 0
-531 -375 0
-535 -373 0
-536 -374 0
-537 -375 0
-487 -379 0
-488 -380 0
-489 -381 0
-412 -382 0
-413 -383 0
-414 -384 0
-436 -382 0
-437 -383 0
-438 -384 0
-550 -382 0
-551 -383 0
-552 -384 0
-403 -388 0
-404 -389 0
-405 -390 0
-433 -388 0
-434 -389 0
-435 -390 0
-472 -388 0
-473 -389 0
-474 -390 0
-559 -388 0
-560 -389 0
-561 -390 0
-439 -391 0
-440 -392 0
-441 -393 0
-559 -391 0
-560 -392 0
-561 -393 0
-457 -394 0
-458 -395 0
-459 -396 0
-412 -397 0
-413 -398 0
-414 -399 0
-562 -397 0
-563 -398 0
-564 -399 0
-586 -397 0
-587 -398 0
-588 -399 0
-427 -400 0
-428 -401 0
-429 -402 0
-499 -403 0
-500 -404 0
-501 -405 0
-580 -403 0
-581 -404 0
-582 -405 0
-442 -406 0
-443 -407 0
-444 -408 0
-520 -406 0
-521 -407 0
-522 -408 0
-592 -406 0
-593 -407 0
-594 -408 0
-508 -409 0
-509 -410 0
-510 -411 0
-556 -409 0
-557 -410 0
-558 -411 0
-577 -409 0
-578 -410 0
-579 -411 0
-421 -415 0
-422 -416 0
-423 -417 0
-595 -415 0
-596 -416 0
-597 -417 0
-487 -418 0
-488 -419 0
-489 -420 0
-493 -418 0
-494 -419 0
-495 -420 0
-553 -421 0
-554 -422 0
-555 -423 0
-427 -424 0
-428 -425 0
-429 -426 0
-517 -427 0
-518 -428 0
-519 -429 0
-481 -430 0
-482 -431 0
-483 -432 0
-436 -433 0
-437 -434 0
-438 -435 0
-475 -433 0
-476 -434 0
-477 -435 0
-496 -433 0
-497 -434 0
-498 -435 0
-574 -436 0
-575 -437 0
-576 -438 0
-442 -439 0
-443 -440 0
-444 -441 0
-463 -439 0
-464 -440 0
-465 -441 0
-574 -439 0
-575 -440 0
-576 -441 0
-586 -439 0
-587 -440 0
-588 -441 0
-499 -442 0
-500 -443 0
-501 -444 0
-523 -442 0
-524 -443 0
-525 -444 0
-529 -448 0
-530 -449 0
-531 -450 0
-538 -454 0
-539 -455 0
-540 -456 0
-523 -457 0
-524 -458 0
-525 -459 0
-529 -457 0
-530 -458 0
-531 -459 0
-544 -457 0
-545 -458 0
-546 -459 0
-463 -460 0
-464 -461 0
-465 -462 0
-556 -460 0
-557 -461 0
-558 -462 0
-559 -460 0
-560 -461 0
-561 -462 0
-538 -463 0
-539 -464 0
-540 -465 0
-538 -466 0
-539 -467 0
-540 -468 0
-565 -466 0
-566 -467 0
-567 -468 0
-493 -478 0
-494 -479 0
-495 -480 0
-508 -478 0
-509 -479 0
-510 -480 0
-511 -478 0
-512 -479 0
-513 -480 0
-562 -478 0
-563 -479 0
-564 -480 0
-595 -481 0
-596 -482 0
-597 -483 0
-580 -484 0
-581 -485 0
-582 -486 0
-592 -493 0
-593 -494 0
-594 -495 0
-547 -496 0
-548 -497 0
-549 -498 0
-577 -502 0
-578 -503 0
-579 -504 0
-517 -505 0
-518 -506 0
-519 -507 0
-514 -508 0
-515 -509 0
-516 -510 0
-565 -511 0
-566 -512 0
-567 -513 0
-520 -514 0
-521 -515 0
-522 -516 0
-556 -514 0
-557 -515 0
-558 -516 0
-565 -517 0
-566 -518 0
-567 -519 0
-598 -517 0
-599 -518 0
-600 -519 0
-577 -523 0
-578 -524 0
-579 -525 0
-574 -532 0
-575 -533 0
-576 -534 0
-556 -538 0
-557 -539 0
-558 -540 0
-565 -541 0
-566 -542 0
-567 -543 0
-559 -547 0
-560 -548 0
-561 -549 0
-583 -556 0
-584 -557 0
-585 -558 0
-565 -562 0
-566 -563 0
-567 -564 0
-589 -577 0
-590 -578 0
-591 -579 0
